
&control
   prefix="run_FIT"
   calculation_type="fitting_test"
/

&grid
   nomg = 8000
   omg_scale = 15.0
   delta = 0.025
/

&system
   ndim = 2 
   nspin = 2
   efermi = 0.0
   vext_npoles=2
   vext_res(1)=2.0
   vext_poles(1)=-3.0
   vext_res(2)=1.0
   vext_poles(2)=1.0
/

#vext_w
 1.0  1.5

#ham_init
 0.0 1.0 
 1.0 0.0

#v_int
 4.0 0.0 
 0.0 4.0

