
&control
   prefix="runSQ"
   calculation_type="test_sq"
/

