
&control
   prefix="run05_HF_I"
   calculation_type="direct"
   sgm_type="HF"
   niterx=100
   alpha_mix = 0.5
   iteration_kind=1
/

&grid
   nomg = 8000
   omg_scale = 15.0
   delta = 0.025
/

&system
   ndim = 2 
   nspin = 2
   efermi = 0.0
   vext_npoles=1
   vext_res(1)=2.0
   vext_poles(1)=-3.0
/

#vext_w
 1.0  1.5

#ham_init
-0.5 1.0 
 1.0 0.5

#v_int
 6.0 1.0 
 1.0 6.0

