
&control
   prefix="run02_GW"
   calculation_type="direct"
   sgm_type="GW-IP"
   niterx=3
/

&grid
   nomg = 8000
   omg_scale = 15.0
   delta = 0.0025
/

&system
   ndim = 2 
   !nelec = 1.0
   efermi = 0.0
   vext_npoles=1
   vext_res(1)=2.0
   vext_poles(1)=-3.0
/

#vext_w
 0.2  0.8

#ham_init
-1.0 2.0 
 2.0 1.0

#v_int
 0.6 0.3 
 0.3 0.6

