
&control
   prefix="run08_s2intU4"
   calculation_type="exact_gf"
   npoles_fit = 16
   !fitting_type = "NL"
   fitting_type = "LSQ"
/

&grid
   nomg = 8000
   omg_scale = 15.0
   delta = 0.025
/

&system
   ndim = 2 
   nspin = 2
   efermi = 0.0
   vext_npoles=0
   vext_res(1)=2.0
   vext_poles(1)=-3.0
/

#vext_w
 1.0  1.5

#ham_init
 0.0 1.0 
 1.0 0.0

#v_int
 4.0 0.0 
 0.0 4.0

