
&control
   prefix="run07_intU7"
   calculation_type="exact_gf"
/

&grid
   nomg = 8000
   omg_scale = 15.0
   delta = 0.025
/

&system
   ndim = 2 
   nspin = 2
   efermi = 0.0
   vext_npoles=0
   vext_res(1)=2.0
   vext_poles(1)=-3.0
/

#vext_w
 1.0  1.5

#ham_init
-0.5 1.0 
 1.0 0.0

#v_int
 7.0 0.0 
 0.0 7.0

