
&control
   prefix="run11_dynam_pot"
   calculation_type="dynam_pot_test"
   niterx = 500
   alpha_mix = 0.5
/

&grid
   nomg = 20001
   wmin = -20.0
   wmax =  20.0
   delta = 0.02
/

&system
   ndim = 3 
   efermi = 0.1
   vext_npoles=4
   vext_poles(1)=-1.5
   vext_poles(2)=-0.5
   vext_poles(3)= 0.5
   vext_poles(4)= 1.5
   vext_res(1)=0.75
   vext_res(2)=1.25
   vext_res(3)=1.25
   vext_res(4)=0.75
/

#vext_w
 1.5  0.5  1.5

#ham_init
-1.3  2.0 0.0
 2.0 -0.3 2.0
 0.0  2.0 0.7

#v_int
 1.0 0.5 0.0
 0.5 1.0 0.5
 0.0 0.5 1.0

