     
        &CONTROL
        calculation = "LDA"
             prefix = "atom_01_H"
           work_dir = "./SCRATCH"
            nprint  = 50
        /
     
        &SYSTEM
               atom = 'H'
             config = '1s1'
              nspin = 2
               lmax = 0
               nbnd = 1
     
              rxmin = -10.0
                rdx = 0.015
               rmax = 100.0
        /
     
        &METHOD
          !grad_type = '5points'
          grad_type = '3points_rdiff'
        beta_mixing = 0.5
             niterx = 50
          spin_asym = 0.0
        dm_conv_thr = 1.0d-10
      etot_conv_thr = 1.0d-10
        /
