     
        &CONTROL
             prefix = "atom_02_He"
        calculation = "LDA"
           work_dir = "./SCRATCH"
            nprint  = 50
        /
     
        &SYSTEM
               atom = 'He'
             config = '1s2'
              nspin = 1
               lmax = 0
     
              rxmin = -7.0
                rdx = 0.010
               rmax = 40.0
        /
     
        &METHOD
          grad_type = '3points_rdiff'
        beta_mixing = 0.8
             niterx = 50
        /
