     
        &CONTROL
        calculation = "LDA"
             prefix = "atom_10_Ne_spin"
           work_dir = "./SCRATCH"
            nprint  = 50
        /
     
        &SYSTEM
               atom = 'Ne'
             config = '1s1 1s1 2s1 2s1 2p3 2p3'
              nspin = 2
               lmax = 1
     
              rxmin = -7.0
                rdx = 0.010
               rmax = 40.0
        /
     
        &METHOD
          grad_type = '3points_rdiff'
        beta_mixing = 0.7
             niterx = 40
        /
