     
        &CONTROL
             prefix = "atom_02_He"
        calculation = "GW"
           work_dir = "./SCRATCH"
            nprint  = 50
        debug_level = 0
       scf_datatype = "HF"
        /
     
        &SYSTEM
               atom = 'He'
             config = '1s2'
              nspin = 1
               lmax = 4
        /
     
        &METHOD
         basis_type = "bspline"
          grid_type = "cubic"
      bspline_size  = 500
      bspline_order = 4
        gauss_order = 8
               rmax = 100.0

        beta_mixing = 0.8
             niterx = 50
          spin_asym = 0.0
        dm_conv_thr = 1.0d-10
      etot_conv_thr = 1.0d-10
        /

        &GREENFUNC
               emin = -5.0d0
               emax =  2.0d0
!                 ne = 1000
                 ne = 4
          analyt_gf = "time-ordered"
!            nbnd_gf = 0
            nbnd_gf = 5
           delta_gf = 0.01
            nbnd_QP = 1 ! useless?
            lmax_QP = 0
          method_gf = "gw-contour-deformation"
!                 nx = 100
                 nx = 10
             xscale = 40.0d0
       /

        &RESPONSE
               nomg = 2
            omg_min = 0.0d0 
            omg_max = 1.0d0 
         delta_resp = 0.01
        analyt_resp = "time-ordered"
          nbnd_resp = 0
       /
