
   &CONTROL
         prefix       = "cosh_LiB+_R06"
         workdir      = "./"
         calculation  = "PZSIC"
         !
         do_h         = .TRUE.
         do_x         = .TRUE.
         do_sic       = .FALSE.
         !
         niterx       = 8000
         alpha        =  0.5
         grad_type    = "5points" 
         conv_thr     = 1.0d-10
         nprint       = 250
         !
         dt           = 0.005
         dtmax        = 0.06
         starting_wfc = "h0"
   /

   &SYSTEM
         alat            =  1.0
         celldm          =  25.0
         ngrid_cell      =  20
         !
         natom           =   2
         zv(1)           =  4.0
         zv(2)           =  7.0
         !
         coord(1)        =  -3.0
         coord(2)        =   3.0
         !
         nspin           =  1
         nbnd            =  4
         nelec           =  7.0
   / 

   &POTENTIAL
         v_dcut          =  0.02
         v_delta         =  1.5
         v_beta          =  1.0
         v_type          = "cosh"
         h_delta         =  1.5
   /

   &GREENFUNC
         ne     = 1000
         emin   =  -20.0
         emax   =   +5.0
         gf_delta  = 0.001
   /

