     
        &CONTROL
        calculation = "HF"
             prefix = "atom_04_Be"
           work_dir = "./SCRATCH"
            nprint  = 50
        /
     
        &SYSTEM
               atom = 'Be'
             config = '1s2 2s2'
              nspin = 1
               lmax = 0
        /
     
        &METHOD
              rxmin = -7.0
                rdx = 0.010
               rmax = 40.0

          grad_type = '3points_rdiff'
        beta_mixing = 0.7
             niterx = 40
        /
