
   &CONTROL
         prefix       = "cosh_LiB+_R06"
         workdir      = "./"
         calculation  = "HF"
         !
         do_h         = .TRUE.
         do_x         = .TRUE.
         do_sic       = .FALSE.
         !
         niterx       = 60
         alpha        =  0.4
         grad_type    = "5points" 
         conv_thr     = 1.0d-10
         nprint       = 10
   /

   &SYSTEM
         alat            =  1.0
         celldm          =  25.0
         ngrid_cell      =  20
         !
         natom           =   2
         zv(1)           =  4.0
         zv(2)           =  7.0
         !
         coord(1)        =  -3.0
         coord(2)        =   3.0
         !
         nspin           =  1
         nbnd            =  6
         nelec           =  7.0
   / 

   &POTENTIAL
         v_dcut          =  0.02
         v_delta         =  1.5
         v_beta          =  1.0
         v_type          = "cosh"
         h_delta         =  1.5
   /

   &GREENFUNC
         ne     = 1000
         emin   =  -20.0
         emax   =   +5.0
         gf_delta  = 0.001
   /

   &SIGMA
         sgm_type="model"
         npoles = 2
         !
         rpoles(1) = -0.5 
         ipoles(1) =  0.5
	 res(1)    =  1.0
         !
         rpoles(2) =  0.5 
         ipoles(2) =  0.5
         res(2)    =  1.0
   /

