     
        &CONTROL
        calculation = "S-LDA_QP"
             prefix = "atom_36_Kr"
           work_dir = "./SCRATCH"
            nprint  = 50
       scf_datatype = "LDA"
        /
     
        &SYSTEM
               atom = 'Kr'
             config = '1s2 2s2 2p6 3s2 3p6 4s2 3d10 4p6'
              nspin = 1
               lmax = 2
        /
     
        &METHOD
         basis_type = "bspline"
          grid_type = "cubic"
      bspline_size  = 500
      bspline_order = 4
        gauss_order = 8
               rmax = 100.0

        beta_mixing = 0.5
             niterx = 50
          spin_asym = 0.0
        dm_conv_thr = 1.0d-10
      etot_conv_thr = 1.0d-10


        /
