  &CONTROL
        prefix='RPA_test'
 calculation = "sigma_lund,spectr,fit,plot"
     units_in = 'auxfunits'
       rs_min = 5.0
       rs_max = 6.0
          nrs = 1
   /

 &GRIDS
           nw = 1000
        w_min = -10
        w_max = 10
      w_gtype = 'quadratic_on_ef'
      w_units = 'notreduced'
         nk_r = 1
        nk_th = 1
        k_max = 1
      k_gtype = 'uniform'
      lkshift = .false.
   k_r_gauleg = .false.
         nq_r = 1000
        nq_th = 1000
        q_max = 10
      q_gtype = 'uniform'
      lqshift = .true.
   q_r_gauleg = .false.
     delta_in = 0.01
   /

   &PLOT
       what="sigma_vs_w,gf_vs_w"
   /

  &FIT
    fit_func   = 'gprop'
    fit_type   = 'NL-F-real'
    fit_nbasis = 300
    fit_verb   = .true.
    fit_niterx = 1000
    fit_thr    = 1.0d-3
   /

  &SPECTRALF
    from_fit     = .false.
    ene_shift_in = 0.0
   /

