
   &CONTROL
       prefix = "RPA_test"
  calculation = "sigma_g0w0analyt,plot"
     units_in = 'auxfunits'
       rs_min = 1.0
       rs_max = 6.0
          nrs = 1
   /

 &GRIDS
           nw = 1000
        w_min = -5
        w_max = 5
      w_gtype = 'uniform'
      w_units = 'notreduced'
         nk_r = 1
        nk_th = 1
        k_max = 0.8
      k_gtype = 'uniform'
      lkshift = .false.
   k_r_gauleg = .false.
         nq_r = 4000
        nq_th = 1000
        q_max = 10
      q_gtype = 'uniform'
      lqshift = .true.
   q_r_gauleg = .false.
     delta_in = 10
   /

   &PLOT
       what="sigma_vs_w"
   /

