     
        &CONTROL
        calculation = "LDA"
             prefix = "atom_01_H"
           work_dir = "./SCRATCH"
            nprint  = 50
        debug_level = 0
        /
     
        &SYSTEM
               atom = 'H'
             config = '1s1'
              nspin = 2
               lmax = 0
               nbnd = 1
        /
     
        &METHOD
         basis_type = "bspline"
          grid_type = "cubic"
      bspline_size  = 750
      bspline_order = 4
        gauss_order = 10
               rmax = 200.0

        beta_mixing = 0.8
             niterx = 50
          spin_asym = 0.0
        dm_conv_thr = 1.0d-8
      etot_conv_thr = 1.0d-10
        /
